;; produced by z3_gnatprove.drv ;;
(set-info :smt-lib-version 2.5)
(set-info :source |VC generated by SPARK 2014|)
(set-info :category industrial)
(set-info :status unknown)
;;; generated by SMT-LIB2 driver
;;; SMT-LIB2 driver: bit-vectors, common part
;;; SMT-LIB2: integer arithmetic
(declare-sort string 0)

(declare-datatypes () ((tuple0 (Tuple0))))
(declare-sort us_private 0)

(declare-fun private__bool_eq (us_private us_private) Bool)

(declare-const us_null_ext__ us_private)

(declare-sort us_type_of_heap 0)

(declare-datatypes ()
((us_type_of_heap__ref
 (us_type_of_heap__refqtmk (us_type_of_heap__content us_type_of_heap)))))
(declare-sort us_image 0)

(declare-datatypes () ((int__ref (int__refqtmk (int__content Int)))))
(declare-datatypes () ((bool__ref (bool__refqtmk (bool__content Bool)))))
(declare-datatypes ()
((us_fixed__ref (us_fixed__refqtmk (us_fixed__content Int)))))
(declare-datatypes () ((real__ref (real__refqtmk (real__content Real)))))
(declare-datatypes ()
((us_private__ref (us_private__refqtmk (us_private__content us_private)))))
(define-fun int__ref___projection ((a int__ref)) Int (int__content a))

(define-fun us_fixed__ref___projection ((a us_fixed__ref)) Int (us_fixed__content
                                                               a))

(define-fun bool__ref___projection ((a bool__ref)) Bool (bool__content a))

(define-fun real__ref___projection ((a real__ref)) Real (real__content a))

(define-fun us_private__ref___projection ((a us_private__ref)) us_private 
  (us_private__content a))

(define-fun abs1 ((x Int)) Int (ite (<= 0 x) x (- x)))

;; Abs_le
  (assert
  (forall ((x Int) (y Int)) (= (<= (abs1 x) y) (and (<= (- y) x) (<= x y)))))

;; Abs_pos
  (assert (forall ((x Int)) (<= 0 (abs1 x))))

(declare-fun div1 (Int Int) Int)

(declare-fun mod1 (Int Int) Int)

;; Div_mod
  (assert
  (forall ((x Int) (y Int))
  (=> (not (= y 0)) (= x (+ (* y (div1 x y)) (mod1 x y))))))

;; Div_bound
  (assert
  (forall ((x Int) (y Int))
  (=> (and (<= 0 x) (< 0 y)) (and (<= 0 (div1 x y)) (<= (div1 x y) x)))))

;; Mod_bound
  (assert
  (forall ((x Int) (y Int))
  (=> (not (= y 0))
  (and (< (- (abs1 y)) (mod1 x y)) (< (mod1 x y) (abs1 y))))))

;; Div_sign_pos
  (assert
  (forall ((x Int) (y Int)) (=> (and (<= 0 x) (< 0 y)) (<= 0 (div1 x y)))))

;; Div_sign_neg
  (assert
  (forall ((x Int) (y Int)) (=> (and (<= x 0) (< 0 y)) (<= (div1 x y) 0))))

;; Mod_sign_pos
  (assert
  (forall ((x Int) (y Int))
  (=> (and (<= 0 x) (not (= y 0))) (<= 0 (mod1 x y)))))

;; Mod_sign_neg
  (assert
  (forall ((x Int) (y Int))
  (=> (and (<= x 0) (not (= y 0))) (<= (mod1 x y) 0))))

;; Rounds_toward_zero
  (assert
  (forall ((x Int) (y Int))
  (=> (not (= y 0)) (<= (abs1 (* (div1 x y) y)) (abs1 x)))))

;; Div_1
  (assert (forall ((x Int)) (= (div1 x 1) x)))

;; Mod_1
  (assert (forall ((x Int)) (= (mod1 x 1) 0)))

;; Div_inf
  (assert
  (forall ((x Int) (y Int)) (=> (and (<= 0 x) (< x y)) (= (div1 x y) 0))))

;; Mod_inf
  (assert
  (forall ((x Int) (y Int)) (=> (and (<= 0 x) (< x y)) (= (mod1 x y) x))))

;; Div_mult
  (assert
  (forall ((x Int) (y Int) (z Int))
  (! (=> (and (< 0 x) (and (<= 0 y) (<= 0 z)))
     (= (div1 (+ (* x y) z) x) (+ y (div1 z x)))) :pattern ((div1
                                                            (+ (* x y) z) x)) )))

;; Mod_mult
  (assert
  (forall ((x Int) (y Int) (z Int))
  (! (=> (and (< 0 x) (and (<= 0 y) (<= 0 z)))
     (= (mod1 (+ (* x y) z) x) (mod1 z x))) :pattern ((mod1 (+ (* x y) z) x)) )))

(define-fun mod2 ((x Int)
  (y Int)) Int (ite (< 0 y) (mod x y) (+ (mod x y) y)))

(define-fun in_range ((x Int)) Bool (or (= x 0) (= x 1)))

(declare-fun attr__ATTRIBUTE_IMAGE (Bool) us_image)

(declare-fun attr__ATTRIBUTE_VALUE__pre_check (us_image) Bool)

(declare-fun attr__ATTRIBUTE_VALUE (us_image) Bool)

(declare-sort integer 0)

(declare-fun integerqtint (integer) Int)

;; integer'axiom
  (assert
  (forall ((i integer))
  (and (<= (- 2147483648) (integerqtint i)) (<= (integerqtint i) 2147483647))))

(define-fun in_range1 ((x Int)) Bool (and (<= (- 2147483648) x)
                                     (<= x 2147483647)))

(declare-fun attr__ATTRIBUTE_IMAGE1 (Int) us_image)

(declare-fun attr__ATTRIBUTE_VALUE__pre_check1 (us_image) Bool)

(declare-fun attr__ATTRIBUTE_VALUE1 (us_image) Int)

(declare-fun user_eq (integer integer) Bool)

(declare-const dummy integer)

(declare-datatypes ()
((integer__ref (integer__refqtmk (integer__content integer)))))
(define-fun integer__ref_integer__content__projection ((a integer__ref)) integer 
  (integer__content a))

(declare-sort long_long_integer 0)

(declare-fun long_long_integerqtint (long_long_integer) Int)

;; long_long_integer'axiom
  (assert
  (forall ((i long_long_integer))
  (and (<= (- 9223372036854775808) (long_long_integerqtint i))
  (<= (long_long_integerqtint i) 9223372036854775807))))

(define-fun in_range2 ((x Int)) Bool (and (<= (- 9223372036854775808) x)
                                     (<= x 9223372036854775807)))

(declare-fun attr__ATTRIBUTE_IMAGE2 (Int) us_image)

(declare-fun attr__ATTRIBUTE_VALUE__pre_check2 (us_image) Bool)

(declare-fun attr__ATTRIBUTE_VALUE2 (us_image) Int)

(declare-fun user_eq1 (long_long_integer long_long_integer) Bool)

(declare-const dummy1 long_long_integer)

(declare-datatypes ()
((long_long_integer__ref
 (long_long_integer__refqtmk (long_long_integer__content long_long_integer)))))
(define-fun long_long_integer__ref_long_long_integer__content__projection ((a long_long_integer__ref)) long_long_integer 
  (long_long_integer__content a))

(declare-sort natural 0)

(declare-fun naturalqtint (natural) Int)

;; natural'axiom
  (assert
  (forall ((i natural))
  (and (<= 0 (naturalqtint i)) (<= (naturalqtint i) 2147483647))))

(define-fun in_range3 ((x Int)) Bool (and (<= 0 x) (<= x 2147483647)))

(declare-fun attr__ATTRIBUTE_IMAGE3 (Int) us_image)

(declare-fun attr__ATTRIBUTE_VALUE__pre_check3 (us_image) Bool)

(declare-fun attr__ATTRIBUTE_VALUE3 (us_image) Int)

(declare-fun user_eq2 (natural natural) Bool)

(declare-const dummy2 natural)

(declare-datatypes ()
((natural__ref (natural__refqtmk (natural__content natural)))))
(define-fun natural__ref_natural__content__projection ((a natural__ref)) natural 
  (natural__content a))

(define-fun dynamic_invariant ((temp___expr_39 Int) (temp___is_init_35 Bool)
  (temp___skip_constant_36 Bool) (temp___do_toplevel_37 Bool)
  (temp___do_typ_inv_38 Bool)) Bool (=>
                                    (or (= temp___is_init_35 true)
                                    (<= 0 2147483647)) (in_range3
                                    temp___expr_39)))

(declare-const n Int)

(declare-const attr__ATTRIBUTE_ADDRESS Int)

(declare-const attr__ATTRIBUTE_ADDRESS1 Int)

(declare-const attr__ATTRIBUTE_ADDRESS2 Int)

(declare-const attr__ATTRIBUTE_ADDRESS3 Int)

(declare-sort sqrt_range 0)

(declare-fun sqrt_rangeqtint (sqrt_range) Int)

;; sqrt_range'axiom
  (assert
  (forall ((i sqrt_range))
  (and (<= 0 (sqrt_rangeqtint i)) (<= (sqrt_rangeqtint i) 46340))))

(define-fun in_range4 ((x Int)) Bool (and (<= 0 x) (<= x 46340)))

(declare-fun attr__ATTRIBUTE_IMAGE4 (Int) us_image)

(declare-fun attr__ATTRIBUTE_VALUE__pre_check4 (us_image) Bool)

(declare-fun attr__ATTRIBUTE_VALUE4 (us_image) Int)

(declare-fun user_eq3 (sqrt_range sqrt_range) Bool)

(declare-const dummy3 sqrt_range)

(declare-datatypes ()
((sqrt_range__ref (sqrt_range__refqtmk (sqrt_range__content sqrt_range)))))
(define-fun sqrt_range__ref_sqrt_range__content__projection ((a sqrt_range__ref)) sqrt_range 
  (sqrt_range__content a))

(define-fun dynamic_invariant1 ((temp___expr_159 Int)
  (temp___is_init_155 Bool) (temp___skip_constant_156 Bool)
  (temp___do_toplevel_157 Bool)
  (temp___do_typ_inv_158 Bool)) Bool (=>
                                     (or (= temp___is_init_155 true)
                                     (<= 0 46340)) (in_range4
                                     temp___expr_159)))

(declare-sort upper_range 0)

(declare-fun upper_rangeqtint (upper_range) Int)

;; upper_range'axiom
  (assert
  (forall ((i upper_range))
  (and (<= 0 (upper_rangeqtint i)) (<= (upper_rangeqtint i) 46341))))

(define-fun in_range5 ((x Int)) Bool (and (<= 0 x) (<= x 46341)))

(declare-fun attr__ATTRIBUTE_IMAGE5 (Int) us_image)

(declare-fun attr__ATTRIBUTE_VALUE__pre_check5 (us_image) Bool)

(declare-fun attr__ATTRIBUTE_VALUE5 (us_image) Int)

(declare-fun user_eq4 (upper_range upper_range) Bool)

(declare-const dummy4 upper_range)

(declare-datatypes ()
((upper_range__ref (upper_range__refqtmk (upper_range__content upper_range)))))
(define-fun upper_range__ref_upper_range__content__projection ((a upper_range__ref)) upper_range 
  (upper_range__content a))

(define-fun dynamic_invariant2 ((temp___expr_166 Int)
  (temp___is_init_162 Bool) (temp___skip_constant_163 Bool)
  (temp___do_toplevel_164 Bool)
  (temp___do_typ_inv_165 Bool)) Bool (=>
                                     (or (= temp___is_init_162 true)
                                     (<= 0 46341)) (in_range5
                                     temp___expr_166)))

(define-fun dynamic_invariant3 ((temp___expr_18 Int) (temp___is_init_14 Bool)
  (temp___skip_constant_15 Bool) (temp___do_toplevel_16 Bool)
  (temp___do_typ_inv_17 Bool)) Bool (=>
                                    (or (= temp___is_init_14 true)
                                    (<= (- 2147483648) 2147483647))
                                    (in_range1 temp___expr_18)))

(define-fun dynamic_invariant4 ((temp___expr_32 Int) (temp___is_init_28 Bool)
  (temp___skip_constant_29 Bool) (temp___do_toplevel_30 Bool)
  (temp___do_typ_inv_31 Bool)) Bool (=>
                                    (or (= temp___is_init_28 true)
                                    (<= (- 9223372036854775808) 9223372036854775807))
                                    (in_range2 temp___expr_32)))

(declare-const lower Int)

(declare-const upper Int)

(declare-const halfway Int)

;; Assume
  (assert (dynamic_invariant n true false true true))

;; Assume
  (assert true)

;; Assume
  (assert (dynamic_invariant1 lower false false true true))

;; Assume
  (assert true)

;; Assume
  (assert (dynamic_invariant2 upper false false true true))

;; Assume
  (assert true)

;; Assume
  (assert (dynamic_invariant1 halfway false false true true))

(declare-const lower1 Int)

;; H
  (assert (= lower1 0))

(declare-const upper1 Int)

;; H
  (assert (= upper1 46341))

(define-fun o () Int (* upper1 upper1))

;; Ensures
  (assert (in_range2 o))

(define-fun o1 () Int (* lower1 lower1))

;; Ensures
  (assert (in_range1 o1))

(declare-const lower2 Int)

(declare-const upper2 Int)

(declare-const halfway1 Int)

;; LoopInvariant
  (assert (and (<= (* lower2 lower2) n) (< n (* upper2 upper2))))

;; Assume
  (assert
  (and
  (and (dynamic_invariant2 upper2 false true true true) (dynamic_invariant1
  halfway1 false true true true)) (dynamic_invariant1 lower2 false true true
  true)))

;; H
  (assert (not (= upper2 (+ lower2 1))))

(assert
;; defqtvc
 ;; File "p2.ads", line 10, characters 0-0
  (not (not (= 2 0))))
(check-sat)
